10J3M/DAT/10J3MNTL-15.dat
10 3
20.3582 20.3582
29.6255 29.6255
35.6028 35.6028
28.3648 28.3648
27.5639 27.5639
21.7368 21.7368
20.0018 20.0018
16.6506 16.6506
26.9394 26.9394
30.208 30.208
64.2629