10J3M/SOL/10J3MNTL-15.sol
solution status: optimal solution found
objective value:                              61.1576
x#1#1                                               1 	(obj:0)
x#2#3                                               1 	(obj:0)
x#3#2                                               1 	(obj:0)
x#4#2                               0.458177900939446 	(obj:0)
x#5#1                                               1 	(obj:0)
x#6#1                               0.229179290937918 	(obj:0)
x#7#2                                               1 	(obj:0)
x#8#1                                               1 	(obj:0)
x#9#3                               0.949848602379833 	(obj:0)
z                                             61.1576 	(obj:1)
